Minimize
  - 19 y_0 - 19 y_1 - 22 y_2 - 13 y_3 - 11 y_4 - 17 y_5 - 7 y_6 - 21 y_7
   - 2 y_8 - 10 y_9 - 16 y_10 - 21 y_11 - 23 y_12 - 14 y_13 - 29 y_14
   - 25 y_15 - 27 y_16 - 24 y_17 - 9 y_18 - 15 y_19 - 4 y_20 - 15 y_21
   - 9 y_22 - 16 y_23 - 18 y_24 - 18 y_25 - 14 y_26 - 22 y_27 - 2 y_28
   - 15 y_29 - 22 y_30 - 13 y_31 - 19 y_32 - 15 y_33 - 20 y_34 - 6 y_36
   - 14 y_37 - 13 y_38 - 26 y_39 - 22 y_40 - 22 y_41 - 13 y_42 - 16 y_43
   - 9 y_44 - 24 y_45 - 18 y_46 - 17 y_47 - 27 y_48 - 14 y_49 + 7 x_0_1
   + 56 x_0_4 + 76 x_0_6 + 35 x_0_9 + 53 x_0_11 + 49 x_0_14 + 62 x_0_16
   + 52 x_0_17 + 64 x_0_32 + 56 x_0_36 + 72 x_0_38 + 56 x_0_41 + 63 x_0_42
   + 58 x_0_46 + 76 x_0_49 + 68 x_1_8 + 33 x_1_9 + 18 x_1_12 + 39 x_1_13
   + 57 x_1_18 + 84 x_1_21 + 41 x_1_22 + 10 x_1_23 + 60 x_1_26 + 48 x_1_27
   + 53 x_1_36 + 46 x_1_37 + 25 x_1_40 + 62 x_1_41 + 66 x_1_42 + 66 x_1_45
   + 63 x_1_46 + 79 x_1_49 + 17 x_2_12 + 35 x_2_15 + 85 x_2_20 + 25 x_2_23
   + 19 x_2_24 + 41 x_2_27 + 11 x_2_34 + 71 x_2_42 + 25 x_2_47 + 38 x_3_6
   + 44 x_3_7 + 29 x_3_9 + 62 x_3_12 + 17 x_3_18 + 36 x_3_23 + 32 x_3_24
   + 35 x_3_27 + 46 x_3_28 + 24 x_3_29 + 46 x_3_30 + 21 x_3_42 + 27 x_3_46
   + 27 x_3_47 + 75 x_4_12 + 77 x_4_14 + 61 x_4_15 + 53 x_4_17 + 18 x_4_19
   + 28 x_4_21 + 49 x_4_23 + 12 x_4_26 + 46 x_4_27 + 37 x_4_28 + 37 x_4_29
   + 29 x_4_31 + 57 x_4_34 + 44 x_4_35 + 26 x_4_43 + 18 x_4_44 + 29 x_4_46
   + 41 x_4_47 + 71 x_5_6 + 24 x_5_12 + 63 x_5_14 + 50 x_5_19 + 70 x_5_32
   + 67 x_5_35 + 45 x_5_36 + 72 x_5_39 + 69 x_5_45 + 20 x_5_47 + 67 x_5_48
   + 34 x_6_8 + 46 x_6_9 + 62 x_6_10 + 21 x_6_18 + 33 x_6_21 + 66 x_6_23
   + 56 x_6_29 + 26 x_6_35 + 77 x_6_45 + 53 x_6_46 + 67 x_7_10 + 29 x_7_21
   + 77 x_7_22 + 43 x_7_27 + 74 x_7_28 + 13 x_7_32 + 25 x_7_33 + 83 x_7_36
   + 43 x_7_39 + 71 x_7_40 + 33 x_7_45 + 54 x_7_48 + 28 x_7_49 + 36 x_8_9
   + 83 x_8_11 + 111 x_8_14 + 38 x_8_18 + 61 x_8_19 + 84 x_8_30 + 79 x_8_32
   + 73 x_8_34 + 85 x_8_40 + 96 x_8_45 + 106 x_8_48 + 25 x_9_10 + 64 x_9_15
   + 81 x_9_16 + 67 x_9_17 + 9 x_9_22 + 34 x_9_24 + 43 x_9_28 + 49 x_9_33
   + 37 x_9_34 + 33 x_9_37 + 28 x_9_47 + 61 x_10_16 + 35 x_10_19
   + 60 x_10_20 + 9 x_10_24 + 64 x_10_28 + 6 x_10_29 + 24 x_10_30
   + 54 x_10_32 + 47 x_10_33 + 15 x_10_34 + 59 x_10_38 + 58 x_10_39
   + 62 x_10_43 + 71 x_11_12 + 45 x_11_14 + 16 x_11_17 + 69 x_11_20
   + 66 x_11_22 + 41 x_11_24 + 50 x_11_25 + 75 x_11_36 + 54 x_11_44
   + 13 x_11_46 + 41 x_11_47 + 43 x_11_49 + 74 x_12_16 + 24 x_12_25
   + 92 x_12_35 + 69 x_12_36 + 62 x_12_37 + 29 x_12_40 + 35 x_12_47
   + 96 x_12_49 + 58 x_13_14 + 40 x_13_17 + 24 x_13_18 + 21 x_13_26
   + 30 x_13_27 + 52 x_13_28 + 36 x_13_38 + 39 x_13_44 + 51 x_13_48
   + 41 x_13_49 + 82 x_14_18 + 91 x_14_21 + 110 x_14_28 + 114 x_14_35
   + 99 x_14_36 + 94 x_14_44 + 39 x_14_45 + 87 x_14_49 + 53 x_15_26
   + 49 x_15_31 + 38 x_15_34 + 99 x_15_35 + 84 x_15_36 + 46 x_15_37
   + 37 x_15_47 + 97 x_16_20 + 74 x_16_21 + 89 x_16_22 + 68 x_16_23
   + 62 x_16_29 + 42 x_16_32 + 110 x_16_35 + 100 x_16_36 + 55 x_16_37
   + 71 x_16_38 + 64 x_16_42 + 61 x_16_43 + 83 x_16_44 + 17 x_16_45
   + 71 x_16_49 + 36 x_17_19 + 62 x_17_21 + 56 x_17_23 + 41 x_17_24
   + 50 x_17_25 + 41 x_17_33 + 10 x_17_39 + 50 x_17_42 + 29 x_17_46
   + 44 x_17_47 + 33 x_18_21 + 52 x_18_25 + 29 x_18_28 + 62 x_18_30
   + 28 x_18_31 + 36 x_18_35 + 34 x_18_43 + 38 x_18_46 + 35 x_19_21
   + 28 x_19_27 + 47 x_19_30 + 27 x_19_31 + 22 x_19_32 + 46 x_19_40
   + 32 x_19_47 + 49 x_19_48 + 30 x_19_49 + 67 x_20_24 + 42 x_20_26
   + 8 x_20_28 + 82 x_20_30 + 61 x_20_32 + 17 x_20_35 + 35 x_20_38
   + 74 x_20_41 + 18 x_20_44 + 61 x_20_47 + 95 x_20_48 + 39 x_20_49
   + 77 x_21_25 + 56 x_21_31 + 59 x_21_35 + 5 x_21_49 + 58 x_22_30
   + 53 x_22_33 + 12 x_22_36 + 55 x_22_38 + 59 x_22_40 + 44 x_22_44
   + 84 x_22_48 + 15 x_23_24 + 10 x_23_25 + 55 x_23_33 + 14 x_23_34
   + 45 x_23_36 + 70 x_23_43 + 63 x_23_44 + 62 x_23_45 + 13 x_23_47
   + 70 x_23_49 + 45 x_24_26 + 16 x_24_30 + 55 x_24_36 + 44 x_24_41
   + 63 x_24_44 + 48 x_24_45 + 46 x_24_46 + 7 x_24_47 + 46 x_24_48
   + 24 x_25_31 + 61 x_25_32 + 59 x_25_42 + 56 x_25_45 + 54 x_25_46
   + 37 x_26_27 + 33 x_26_31 + 21 x_26_32 + 54 x_26_36 + 14 x_26_37
   + 17 x_26_38 + 56 x_26_40 + 8 x_26_42 + 40 x_26_45 + 17 x_26_46
   + 81 x_27_28 + 32 x_27_37 + 21 x_27_39 + 15 x_27_41 + 63 x_27_44
   + 32 x_27_47 + 50 x_28_31 + 69 x_28_32 + 10 x_28_35 + 82 x_28_41
   + 45 x_28_42 + 57 x_28_43 + 66 x_28_46 + 102 x_28_48 + 8 x_29_31
   + 42 x_29_33 + 21 x_29_34 + 41 x_29_36 + 45 x_29_42 + 8 x_29_47
   + 56 x_29_48 + 59 x_30_32 + 89 x_30_35 + 45 x_30_37 + 73 x_30_38
   + x_30_40 + 72 x_30_43 + 37 x_31_33 + 52 x_31_35 + 36 x_31_36
   + 61 x_31_39 + 43 x_31_44 + 54 x_31_45 + 30 x_32_37 + 30 x_32_38
   + 45 x_32_44 + 7 x_32_46 + 50 x_32_47 + 44 x_32_48 + 29 x_32_49
   + 60 x_33_35 + 18 x_33_37 + 31 x_33_41 + 15 x_33_43 + 38 x_33_45
   + 59 x_34_39 + 63 x_34_42 + 35 x_35_44 + 73 x_35_46 + 46 x_36_37
   + 71 x_36_40 + 54 x_36_42 + 43 x_36_44 + 69 x_36_46 + 95 x_36_48
   + 30 x_37_38 + 35 x_37_41 + 33 x_37_43 + 33 x_37_44 + 27 x_37_47
   + 34 x_37_49 + 47 x_38_41 + 9 x_38_42 + 30 x_38_46 + 6 x_38_49
   + 58 x_39_42 + 12 x_39_48 + 65 x_39_49 + 72 x_40_43 + 77 x_40_44
   + 37 x_40_48 + 44 x_41_47 + 15 x_42_43 + 59 x_43_47 + 11 x_43_49
   + 43 x_44_46 + 57 x_44_47 + 22 x_44_49 + 21 x_45_48 + 42 x_46_48
   + 73 x_48_49 + 807 Constant
Subject To
 c_0: y_15 = 1
 c_1_0: y_0 >= 1
 c_1_1: y_1 >= 1
 c_1_2: y_2 >= 1
 c_1_3: y_3 >= 1
 c_1_4: y_4 >= 1
 c_1_5: y_5 >= 1
 c_1_6: y_6 >= 1
 c_1_7: y_7 >= 1
 c_1_8: y_8 >= 1
 c_1_9: y_9 >= 1
 c_1_10: y_10 >= 1
 c_1_11: y_11 >= 1
 c_1_12: y_12 >= 1
 c_1_13: y_13 >= 1
 c_1_14: y_14 >= 1
 c_1_15: y_15 >= 1
 c_1_16: y_16 >= 1
 c_1_17: y_17 >= 1
 c_1_18: y_18 >= 1
 c_1_19: y_19 >= 1
 c_1_20: y_20 >= 1
 c_1_21: y_21 >= 1
 c_1_22: y_22 >= 1
 c_1_23: y_23 >= 1
 c_1_24: y_24 >= 1
 c_1_25: y_25 >= 1
 c_1_26: y_26 >= 1
 c_1_27: y_27 >= 1
 c_1_28: y_28 >= 1
 c_1_29: y_29 >= 1
 c_1_30: y_30 >= 1
 c_1_31: y_31 >= 1
 c_1_32: y_32 >= 1
 c_1_33: y_33 >= 1
 c_1_34: y_34 >= 1
 c_1_35: y_35 >= 1
 c_1_36: y_36 >= 1
 c_1_37: y_37 >= 1
 c_1_38: y_38 >= 1
 c_1_39: y_39 >= 1
 c_1_40: y_40 >= 1
 c_1_41: y_41 >= 1
 c_1_42: y_42 >= 1
 c_1_43: y_43 >= 1
 c_1_44: y_44 >= 1
 c_1_45: y_45 >= 1
 c_1_46: y_46 >= 1
 c_1_47: y_47 >= 1
 c_1_48: y_48 >= 1
 c_1_49: y_49 >= 1
 c_2_0: - 2 y_0 + x_0_1 + x_0_4 + x_0_6 + x_0_9 + x_0_11 + x_0_14 + x_0_16
   + x_0_17 + x_0_32 + x_0_36 + x_0_38 + x_0_41 + x_0_42 + x_0_46 + x_0_49
   = 0
 c_2_1: - 2 y_1 + x_0_1 + x_1_8 + x_1_9 + x_1_12 + x_1_13 + x_1_18 + x_1_21
   + x_1_22 + x_1_23 + x_1_26 + x_1_27 + x_1_36 + x_1_37 + x_1_40 + x_1_41
   + x_1_42 + x_1_45 + x_1_46 + x_1_49 = 0
 c_2_2: - 2 y_2 + x_2_12 + x_2_15 + x_2_20 + x_2_23 + x_2_24 + x_2_27
   + x_2_34 + x_2_42 + x_2_47 = 0
 c_2_3: - 2 y_3 + x_3_6 + x_3_7 + x_3_9 + x_3_12 + x_3_18 + x_3_23 + x_3_24
   + x_3_27 + x_3_28 + x_3_29 + x_3_30 + x_3_42 + x_3_46 + x_3_47 = 0
 c_2_4: - 2 y_4 + x_0_4 + x_4_12 + x_4_14 + x_4_15 + x_4_17 + x_4_19
   + x_4_21 + x_4_23 + x_4_26 + x_4_27 + x_4_28 + x_4_29 + x_4_31 + x_4_34
   + x_4_35 + x_4_43 + x_4_44 + x_4_46 + x_4_47 = 0
 c_2_5: - 2 y_5 + x_5_6 + x_5_12 + x_5_14 + x_5_19 + x_5_32 + x_5_35
   + x_5_36 + x_5_39 + x_5_45 + x_5_47 + x_5_48 = 0
 c_2_6: - 2 y_6 + x_0_6 + x_3_6 + x_5_6 + x_6_8 + x_6_9 + x_6_10 + x_6_18
   + x_6_21 + x_6_23 + x_6_29 + x_6_35 + x_6_45 + x_6_46 = 0
 c_2_7: - 2 y_7 + x_3_7 + x_7_10 + x_7_21 + x_7_22 + x_7_27 + x_7_28
   + x_7_32 + x_7_33 + x_7_36 + x_7_39 + x_7_40 + x_7_45 + x_7_48 + x_7_49
   = 0
 c_2_8: - 2 y_8 + x_1_8 + x_6_8 + x_8_9 + x_8_11 + x_8_14 + x_8_18 + x_8_19
   + x_8_30 + x_8_32 + x_8_34 + x_8_40 + x_8_45 + x_8_48 = 0
 c_2_9: - 2 y_9 + x_0_9 + x_1_9 + x_3_9 + x_6_9 + x_8_9 + x_9_10 + x_9_15
   + x_9_16 + x_9_17 + x_9_22 + x_9_24 + x_9_28 + x_9_33 + x_9_34 + x_9_37
   + x_9_47 = 0
 c_2_10: - 2 y_10 + x_6_10 + x_7_10 + x_9_10 + x_10_16 + x_10_19 + x_10_20
   + x_10_24 + x_10_28 + x_10_29 + x_10_30 + x_10_32 + x_10_33 + x_10_34
   + x_10_38 + x_10_39 + x_10_43 = 0
 c_2_11: - 2 y_11 + x_0_11 + x_8_11 + x_11_12 + x_11_14 + x_11_17 + x_11_20
   + x_11_22 + x_11_24 + x_11_25 + x_11_36 + x_11_44 + x_11_46 + x_11_47
   + x_11_49 = 0
 c_2_12: - 2 y_12 + x_1_12 + x_2_12 + x_3_12 + x_4_12 + x_5_12 + x_11_12
   + x_12_16 + x_12_25 + x_12_35 + x_12_36 + x_12_37 + x_12_40 + x_12_47
   + x_12_49 = 0
 c_2_13: - 2 y_13 + x_1_13 + x_13_14 + x_13_17 + x_13_18 + x_13_26
   + x_13_27 + x_13_28 + x_13_38 + x_13_44 + x_13_48 + x_13_49 = 0
 c_2_14: - 2 y_14 + x_0_14 + x_4_14 + x_5_14 + x_8_14 + x_11_14 + x_13_14
   + x_14_18 + x_14_21 + x_14_28 + x_14_35 + x_14_36 + x_14_44 + x_14_45
   + x_14_49 = 0
 c_2_15: - 2 y_15 + x_2_15 + x_4_15 + x_9_15 + x_15_26 + x_15_31 + x_15_34
   + x_15_35 + x_15_36 + x_15_37 + x_15_47 = 0
 c_2_16: - 2 y_16 + x_0_16 + x_9_16 + x_10_16 + x_12_16 + x_16_20 + x_16_21
   + x_16_22 + x_16_23 + x_16_29 + x_16_32 + x_16_35 + x_16_36 + x_16_37
   + x_16_38 + x_16_42 + x_16_43 + x_16_44 + x_16_45 + x_16_49 = 0
 c_2_17: - 2 y_17 + x_0_17 + x_4_17 + x_9_17 + x_11_17 + x_13_17 + x_17_19
   + x_17_21 + x_17_23 + x_17_24 + x_17_25 + x_17_33 + x_17_39 + x_17_42
   + x_17_46 + x_17_47 = 0
 c_2_18: - 2 y_18 + x_1_18 + x_3_18 + x_6_18 + x_8_18 + x_13_18 + x_14_18
   + x_18_21 + x_18_25 + x_18_28 + x_18_30 + x_18_31 + x_18_35 + x_18_43
   + x_18_46 = 0
 c_2_19: - 2 y_19 + x_4_19 + x_5_19 + x_8_19 + x_10_19 + x_17_19 + x_19_21
   + x_19_27 + x_19_30 + x_19_31 + x_19_32 + x_19_40 + x_19_47 + x_19_48
   + x_19_49 = 0
 c_2_20: - 2 y_20 + x_2_20 + x_10_20 + x_11_20 + x_16_20 + x_20_24
   + x_20_26 + x_20_28 + x_20_30 + x_20_32 + x_20_35 + x_20_38 + x_20_41
   + x_20_44 + x_20_47 + x_20_48 + x_20_49 = 0
 c_2_21: - 2 y_21 + x_1_21 + x_4_21 + x_6_21 + x_7_21 + x_14_21 + x_16_21
   + x_17_21 + x_18_21 + x_19_21 + x_21_25 + x_21_31 + x_21_35 + x_21_49
   = 0
 c_2_22: - 2 y_22 + x_1_22 + x_7_22 + x_9_22 + x_11_22 + x_16_22 + x_22_30
   + x_22_33 + x_22_36 + x_22_38 + x_22_40 + x_22_44 + x_22_48 = 0
 c_2_23: - 2 y_23 + x_1_23 + x_2_23 + x_3_23 + x_4_23 + x_6_23 + x_16_23
   + x_17_23 + x_23_24 + x_23_25 + x_23_33 + x_23_34 + x_23_36 + x_23_43
   + x_23_44 + x_23_45 + x_23_47 + x_23_49 = 0
 c_2_24: - 2 y_24 + x_2_24 + x_3_24 + x_9_24 + x_10_24 + x_11_24 + x_17_24
   + x_20_24 + x_23_24 + x_24_26 + x_24_30 + x_24_36 + x_24_41 + x_24_44
   + x_24_45 + x_24_46 + x_24_47 + x_24_48 = 0
 c_2_25: - 2 y_25 + x_11_25 + x_12_25 + x_17_25 + x_18_25 + x_21_25
   + x_23_25 + x_25_31 + x_25_32 + x_25_42 + x_25_45 + x_25_46 = 0
 c_2_26: - 2 y_26 + x_1_26 + x_4_26 + x_13_26 + x_15_26 + x_20_26 + x_24_26
   + x_26_27 + x_26_31 + x_26_32 + x_26_36 + x_26_37 + x_26_38 + x_26_40
   + x_26_42 + x_26_45 + x_26_46 = 0
 c_2_27: - 2 y_27 + x_1_27 + x_2_27 + x_3_27 + x_4_27 + x_7_27 + x_13_27
   + x_19_27 + x_26_27 + x_27_28 + x_27_37 + x_27_39 + x_27_41 + x_27_44
   + x_27_47 = 0
 c_2_28: - 2 y_28 + x_3_28 + x_4_28 + x_7_28 + x_9_28 + x_10_28 + x_13_28
   + x_14_28 + x_18_28 + x_20_28 + x_27_28 + x_28_31 + x_28_32 + x_28_35
   + x_28_41 + x_28_42 + x_28_43 + x_28_46 + x_28_48 = 0
 c_2_29: - 2 y_29 + x_3_29 + x_4_29 + x_6_29 + x_10_29 + x_16_29 + x_29_31
   + x_29_33 + x_29_34 + x_29_36 + x_29_42 + x_29_47 + x_29_48 = 0
 c_2_30: - 2 y_30 + x_3_30 + x_8_30 + x_10_30 + x_18_30 + x_19_30 + x_20_30
   + x_22_30 + x_24_30 + x_30_32 + x_30_35 + x_30_37 + x_30_38 + x_30_40
   + x_30_43 = 0
 c_2_31: - 2 y_31 + x_4_31 + x_15_31 + x_18_31 + x_19_31 + x_21_31
   + x_25_31 + x_26_31 + x_28_31 + x_29_31 + x_31_33 + x_31_35 + x_31_36
   + x_31_39 + x_31_44 + x_31_45 = 0
 c_2_32: - 2 y_32 + x_0_32 + x_5_32 + x_7_32 + x_8_32 + x_10_32 + x_16_32
   + x_19_32 + x_20_32 + x_25_32 + x_26_32 + x_28_32 + x_30_32 + x_32_37
   + x_32_38 + x_32_44 + x_32_46 + x_32_47 + x_32_48 + x_32_49 = 0
 c_2_33: - 2 y_33 + x_7_33 + x_9_33 + x_10_33 + x_17_33 + x_22_33 + x_23_33
   + x_29_33 + x_31_33 + x_33_35 + x_33_37 + x_33_41 + x_33_43 + x_33_45
   = 0
 c_2_34: - 2 y_34 + x_2_34 + x_4_34 + x_8_34 + x_9_34 + x_10_34 + x_15_34
   + x_23_34 + x_29_34 + x_34_39 + x_34_42 = 0
 c_2_35: - 2 y_35 + x_4_35 + x_5_35 + x_6_35 + x_12_35 + x_14_35 + x_15_35
   + x_16_35 + x_18_35 + x_20_35 + x_21_35 + x_28_35 + x_30_35 + x_31_35
   + x_33_35 + x_35_44 + x_35_46 = 0
 c_2_36: - 2 y_36 + x_0_36 + x_1_36 + x_5_36 + x_7_36 + x_11_36 + x_12_36
   + x_14_36 + x_15_36 + x_16_36 + x_22_36 + x_23_36 + x_24_36 + x_26_36
   + x_29_36 + x_31_36 + x_36_37 + x_36_40 + x_36_42 + x_36_44 + x_36_46
   + x_36_48 = 0
 c_2_37: - 2 y_37 + x_1_37 + x_9_37 + x_12_37 + x_15_37 + x_16_37 + x_26_37
   + x_27_37 + x_30_37 + x_32_37 + x_33_37 + x_36_37 + x_37_38 + x_37_41
   + x_37_43 + x_37_44 + x_37_47 + x_37_49 = 0
 c_2_38: - 2 y_38 + x_0_38 + x_10_38 + x_13_38 + x_16_38 + x_20_38
   + x_22_38 + x_26_38 + x_30_38 + x_32_38 + x_37_38 + x_38_41 + x_38_42
   + x_38_46 + x_38_49 = 0
 c_2_39: - 2 y_39 + x_5_39 + x_7_39 + x_10_39 + x_17_39 + x_27_39 + x_31_39
   + x_34_39 + x_39_42 + x_39_48 + x_39_49 = 0
 c_2_40: - 2 y_40 + x_1_40 + x_7_40 + x_8_40 + x_12_40 + x_19_40 + x_22_40
   + x_26_40 + x_30_40 + x_36_40 + x_40_43 + x_40_44 + x_40_48 = 0
 c_2_41: - 2 y_41 + x_0_41 + x_1_41 + x_20_41 + x_24_41 + x_27_41 + x_28_41
   + x_33_41 + x_37_41 + x_38_41 + x_41_47 = 0
 c_2_42: - 2 y_42 + x_0_42 + x_1_42 + x_2_42 + x_3_42 + x_16_42 + x_17_42
   + x_25_42 + x_26_42 + x_28_42 + x_29_42 + x_34_42 + x_36_42 + x_38_42
   + x_39_42 + x_42_43 = 0
 c_2_43: - 2 y_43 + x_4_43 + x_10_43 + x_16_43 + x_18_43 + x_23_43
   + x_28_43 + x_30_43 + x_33_43 + x_37_43 + x_40_43 + x_42_43 + x_43_47
   + x_43_49 = 0
 c_2_44: - 2 y_44 + x_4_44 + x_11_44 + x_13_44 + x_14_44 + x_16_44
   + x_20_44 + x_22_44 + x_23_44 + x_24_44 + x_27_44 + x_31_44 + x_32_44
   + x_35_44 + x_36_44 + x_37_44 + x_40_44 + x_44_46 + x_44_47 + x_44_49
   = 0
 c_2_45: - 2 y_45 + x_1_45 + x_5_45 + x_6_45 + x_7_45 + x_8_45 + x_14_45
   + x_16_45 + x_23_45 + x_24_45 + x_25_45 + x_26_45 + x_31_45 + x_33_45
   + x_45_48 = 0
 c_2_46: - 2 y_46 + x_0_46 + x_1_46 + x_3_46 + x_4_46 + x_6_46 + x_11_46
   + x_17_46 + x_18_46 + x_24_46 + x_25_46 + x_26_46 + x_28_46 + x_32_46
   + x_35_46 + x_36_46 + x_38_46 + x_44_46 + x_46_48 = 0
 c_2_47: - 2 y_47 + x_2_47 + x_3_47 + x_4_47 + x_5_47 + x_9_47 + x_11_47
   + x_12_47 + x_15_47 + x_17_47 + x_19_47 + x_20_47 + x_23_47 + x_24_47
   + x_27_47 + x_29_47 + x_32_47 + x_37_47 + x_41_47 + x_43_47 + x_44_47
   = 0
 c_2_48: - 2 y_48 + x_5_48 + x_7_48 + x_8_48 + x_13_48 + x_19_48 + x_20_48
   + x_22_48 + x_24_48 + x_28_48 + x_29_48 + x_32_48 + x_36_48 + x_39_48
   + x_40_48 + x_45_48 + x_46_48 + x_48_49 = 0
 c_2_49: - 2 y_49 + x_0_49 + x_1_49 + x_7_49 + x_11_49 + x_12_49 + x_13_49
   + x_14_49 + x_16_49 + x_19_49 + x_20_49 + x_21_49 + x_23_49 + x_32_49
   + x_37_49 + x_38_49 + x_39_49 + x_43_49 + x_44_49 + x_48_49 = 0
Bounds
 Constant = 1
Binaries
 y_0 y_1 y_2 y_3 y_4 y_5 y_6 y_7 y_8 y_9 y_10 y_11 y_12 y_13 y_14 y_15 y_16
 y_17 y_18 y_19 y_20 y_21 y_22 y_23 y_24 y_25 y_26 y_27 y_28 y_29 y_30 y_31
 y_32 y_33 y_34 y_35 y_36 y_37 y_38 y_39 y_40 y_41 y_42 y_43 y_44 y_45 y_46
 y_47 y_48 y_49 x_0_1 x_0_4 x_0_6 x_0_9 x_0_11 x_0_14 x_0_16 x_0_17 x_0_32
 x_0_36 x_0_38 x_0_41 x_0_42 x_0_46 x_0_49 x_1_8 x_1_9 x_1_12 x_1_13 x_1_18
 x_1_21 x_1_22 x_1_23 x_1_26 x_1_27 x_1_36 x_1_37 x_1_40 x_1_41 x_1_42
 x_1_45 x_1_46 x_1_49 x_2_12 x_2_15 x_2_20 x_2_23 x_2_24 x_2_27 x_2_34
 x_2_42 x_2_47 x_3_6 x_3_7 x_3_9 x_3_12 x_3_18 x_3_23 x_3_24 x_3_27 x_3_28
 x_3_29 x_3_30 x_3_42 x_3_46 x_3_47 x_4_12 x_4_14 x_4_15 x_4_17 x_4_19
 x_4_21 x_4_23 x_4_26 x_4_27 x_4_28 x_4_29 x_4_31 x_4_34 x_4_35 x_4_43
 x_4_44 x_4_46 x_4_47 x_5_6 x_5_12 x_5_14 x_5_19 x_5_32 x_5_35 x_5_36
 x_5_39 x_5_45 x_5_47 x_5_48 x_6_8 x_6_9 x_6_10 x_6_18 x_6_21 x_6_23 x_6_29
 x_6_35 x_6_45 x_6_46 x_7_10 x_7_21 x_7_22 x_7_27 x_7_28 x_7_32 x_7_33
 x_7_36 x_7_39 x_7_40 x_7_45 x_7_48 x_7_49 x_8_9 x_8_11 x_8_14 x_8_18
 x_8_19 x_8_30 x_8_32 x_8_34 x_8_40 x_8_45 x_8_48 x_9_10 x_9_15 x_9_16
 x_9_17 x_9_22 x_9_24 x_9_28 x_9_33 x_9_34 x_9_37 x_9_47 x_10_16 x_10_19
 x_10_20 x_10_24 x_10_28 x_10_29 x_10_30 x_10_32 x_10_33 x_10_34 x_10_38
 x_10_39 x_10_43 x_11_12 x_11_14 x_11_17 x_11_20 x_11_22 x_11_24 x_11_25
 x_11_36 x_11_44 x_11_46 x_11_47 x_11_49 x_12_16 x_12_25 x_12_35 x_12_36
 x_12_37 x_12_40 x_12_47 x_12_49 x_13_14 x_13_17 x_13_18 x_13_26 x_13_27
 x_13_28 x_13_38 x_13_44 x_13_48 x_13_49 x_14_18 x_14_21 x_14_28 x_14_35
 x_14_36 x_14_44 x_14_45 x_14_49 x_15_26 x_15_31 x_15_34 x_15_35 x_15_36
 x_15_37 x_15_47 x_16_20 x_16_21 x_16_22 x_16_23 x_16_29 x_16_32 x_16_35
 x_16_36 x_16_37 x_16_38 x_16_42 x_16_43 x_16_44 x_16_45 x_16_49 x_17_19
 x_17_21 x_17_23 x_17_24 x_17_25 x_17_33 x_17_39 x_17_42 x_17_46 x_17_47
 x_18_21 x_18_25 x_18_28 x_18_30 x_18_31 x_18_35 x_18_43 x_18_46 x_19_21
 x_19_27 x_19_30 x_19_31 x_19_32 x_19_40 x_19_47 x_19_48 x_19_49 x_20_24
 x_20_26 x_20_28 x_20_30 x_20_32 x_20_35 x_20_38 x_20_41 x_20_44 x_20_47
 x_20_48 x_20_49 x_21_25 x_21_31 x_21_35 x_21_49 x_22_30 x_22_33 x_22_36
 x_22_38 x_22_40 x_22_44 x_22_48 x_23_24 x_23_25 x_23_33 x_23_34 x_23_36
 x_23_43 x_23_44 x_23_45 x_23_47 x_23_49 x_24_26 x_24_30 x_24_36 x_24_41
 x_24_44 x_24_45 x_24_46 x_24_47 x_24_48 x_25_31 x_25_32 x_25_42 x_25_45
 x_25_46 x_26_27 x_26_31 x_26_32 x_26_36 x_26_37 x_26_38 x_26_40 x_26_42
 x_26_45 x_26_46 x_27_28 x_27_37 x_27_39 x_27_41 x_27_44 x_27_47 x_28_31
 x_28_32 x_28_35 x_28_41 x_28_42 x_28_43 x_28_46 x_28_48 x_29_31 x_29_33
 x_29_34 x_29_36 x_29_42 x_29_47 x_29_48 x_30_32 x_30_35 x_30_37 x_30_38
 x_30_40 x_30_43 x_31_33 x_31_35 x_31_36 x_31_39 x_31_44 x_31_45 x_32_37
 x_32_38 x_32_44 x_32_46 x_32_47 x_32_48 x_32_49 x_33_35 x_33_37 x_33_41
 x_33_43 x_33_45 x_34_39 x_34_42 x_35_44 x_35_46 x_36_37 x_36_40 x_36_42
 x_36_44 x_36_46 x_36_48 x_37_38 x_37_41 x_37_43 x_37_44 x_37_47 x_37_49
 x_38_41 x_38_42 x_38_46 x_38_49 x_39_42 x_39_48 x_39_49 x_40_43 x_40_44
 x_40_48 x_41_47 x_42_43 x_43_47 x_43_49 x_44_46 x_44_47 x_44_49 x_45_48
 x_46_48 x_48_49
End
